29
2 10 19 
2 34 13 
1 28 
2 4 25 
2 52 22 
1 26 
2 7 45 
2 58 50 
3 16 24 12 
3 1 15 21 
3 37 39 23 
2 40 55 
3 43 33 56 
1 48 
1 20 
1 3 
1 18 
3 9 60 17 
3 36 57 27 
2 59 35 
3 6 8 14 
3 2 44 47 
1 42 
1 30 
3 5 41 29 
2 46 32 
2 38 11 
3 31 51 54 
2 49 53 
